(set-logic HORN)
(declare-fun !inv0 (Int Int Int (Array Int Int) (Array Int Int) Bool Int ) Bool)
(assert (forall ((M@0 Int)(N@0 Int)(idx@0 Int)(array@0 (Array Int Int))(subarray@0 (Array Int Int))(is_sub@0 Bool)(k@0 Int)(is_sub@1 Bool)) (=> (and (= |is_sub@0| false) (= |k@0| 0) (< (+ |idx@0| |N@0|) |M@0|) (= |is_sub@1| true) (< |idx@0| |M@0|) (<= 0 |idx@0|) (<= |N@0| |M@0|) (> |N@0| 0) (> |M@0| 0)) (!inv0 |M@0| |N@0| |idx@0| |array@0| |subarray@0| |is_sub@1| |k@0|))))
(assert (forall ((M@0 Int)(N@0 Int)(idx@0 Int)(array@0 (Array Int Int))(subarray@0 (Array Int Int))(is_sub@0 Bool)(k@0 Int)) (=> (and (!inv0 |M@0| |N@0| |idx@0| |array@0| |subarray@0| |is_sub@0| |k@0|) (= |is_sub@0| true) (not (forall ((k@0 Int)) (=> (and (<= 0 |k@0|) (< |k@0| |N@0|)) (= (select |subarray@0| |k@0|) (select |array@0| (+ |idx@0| |k@0|)))))) (not (and (= |is_sub@0| true) (< |k@0| |N@0|)))) false)))
(assert (forall ((M@0 Int)(N@0 Int)(idx@0 Int)(is_sub@0 Bool)(k@0 Int)) (=> (and (= |is_sub@0| true) (not (forall ((k@0 Int)) (=> (and (<= 0 |k@0|) (< |k@0| |N@0|)) (= (select |subarray@0| |k@0|) (select |array@0| (+ |idx@0| |k@0|)))))) (= |is_sub@0| false) (= |k@0| 0) (not (< (+ |idx@0| |N@0|) |M@0|)) (< |idx@0| |M@0|) (<= 0 |idx@0|) (<= |N@0| |M@0|) (> |N@0| 0) (> |M@0| 0)) false)))
(assert (forall ((M@0 Int)(N@0 Int)(idx@0 Int)(array@0 (Array Int Int))(subarray@0 (Array Int Int))(is_sub@0 Bool)(k@0 Int)(k@1 Int)(is_sub@1 Bool)) (=> (and (!inv0 |M@0| |N@0| |idx@0| |array@0| |subarray@0| |is_sub@1| |k@0|) (= |k@1| (+ |k@0| 1)) (not (= (select |array@0| (+ |idx@0| |k@0|)) (select |subarray@0| |k@0|))) (= |is_sub@0| false) (= |is_sub@1| true) (< |k@0| |N@0|)) (!inv0 |M@0| |N@0| |idx@0| |array@0| |subarray@0| |is_sub@0| |k@1|))))
(assert (forall ((M@0 Int)(N@0 Int)(idx@0 Int)(array@0 (Array Int Int))(subarray@0 (Array Int Int))(is_sub@0 Bool)(k@0 Int)(k@1 Int)) (=> (and (!inv0 |M@0| |N@0| |idx@0| |array@0| |subarray@0| |is_sub@0| |k@0|) (= |k@1| (+ |k@0| 1)) (not (not (= (select |array@0| (+ |idx@0| |k@0|)) (select |subarray@0| |k@0|)))) (= |is_sub@0| true) (< |k@0| |N@0|)) (!inv0 |M@0| |N@0| |idx@0| |array@0| |subarray@0| |is_sub@0| |k@1|))))
(check-sat)